Solver command line: ['C:\\Users\\Gabriela Escobar\\anaconda3\\envs\\pyomo_env\\Library\\bin\\glpsol.exe', '--write', 'C:\\Users\\GABRIE~1\\AppData\\Local\\Temp\\tmpm5ir3b0p.glpk.raw', '--wglp', 'C:\\Users\\GABRIE~1\\AppData\\Local\\Temp\\tmpwy1idv9h.glpk.glp', '--cpxlp', 'C:\\Users\\GABRIE~1\\AppData\\Local\\Temp\\tmpuewnrhjp.pyomo.lp']

GLPSOL--GLPK LP/MIP Solver 5.0
Parameter(s) specified in the command line:
 --write C:\Users\GABRIE~1\AppData\Local\Temp\tmpm5ir3b0p.glpk.raw --wglp
 C:\Users\GABRIE~1\AppData\Local\Temp\tmpwy1idv9h.glpk.glp --cpxlp C:\Users\GABRIE~1\AppData\Local\Temp\tmpuewnrhjp.pyomo.lp
Reading problem data from 'C:\Users\GABRIE~1\AppData\Local\Temp\tmpuewnrhjp.pyomo.lp'...
171 rows, 171 columns, 28901 non-zeros
29762 lines were read
Writing problem data to 'C:\Users\GABRIE~1\AppData\Local\Temp\tmpwy1idv9h.glpk.glp'...
29587 lines were written
GLPK Simplex Optimizer 5.0
171 rows, 171 columns, 28901 non-zeros
Preprocessing...
170 rows, 170 columns, 28900 non-zeros
Scaling...
 A: min|aij| =  1.349e-04  max|aij| =  5.000e+00  ratio =  3.708e+04
GM: min|aij| =  9.346e-03  max|aij| =  1.070e+02  ratio =  1.145e+04
EQ: min|aij| =  8.785e-05  max|aij| =  1.000e+00  ratio =  1.138e+04
Constructing initial basis...
Size of triangular part is 170
*     0: obj =  -0.000000000e+00 inf =   0.000e+00 (170)
*   126: obj =   6.993134444e+02 inf =   0.000e+00 (0) 1
OPTIMAL LP SOLUTION FOUND
Time used:   0.0 secs
Memory used: 4.8 Mb (5040732 bytes)
Writing basic solution to 'C:\Users\GABRIE~1\AppData\Local\Temp\tmpm5ir3b0p.glpk.raw'...
351 lines were written

